100 8
241 389
655 775
283 942
400 706
457 471
385 479
326 687
719 743
732 444
677 556
194 160
524 630
664 567
453 634
491 803
574 748
401 324
357 930
383 670
469 687
207 415
762 645
331 856
684 191
797 480
369 67
286 542
145 631
165 535
590 280
162 543
685 828
792 643
417 811
626 646
765 607
719 155
631 467
708 432
770 812
670 693
86 646
103 801
783 660
158 505
258 249
268 108
615 596
692 342
162 878
834 636
532 326
559 503
717 524
488 740
184 444
555 876
332 884
514 514
117 621
317 414
459 382
340 913
294 443
661 827
622 689
718 654
695 496
691 495
548 230
245 862
261 385
639 552
161 578
349 673
494 599
385 251
580 660
324 846
275 934
840 518
199 460
546 713
291 411
688 864
471 220
119 468
516 444
240 383
362 773
428 317
359 112
505 856
685 699
753 598
322 806
519 367
533 637
177 649
352 101
